rehearsal = [[0,1,1,1,1,0,1,0,1,0], [1,0,1,1,1,1,1,1,1,1], [0,1,0,1,1,1,1,1,1,1], [1,0,1,0,0,1,1,0,1,1], [0,0,1,0,1,0,0,1,1,1], [0,1,1,1,0,0,1,1,1,0], [1,0,0,0,0,0,0,1,1,0], [1,1,0,1,0,0,1,1,1,1], [0,1,0,1,1,1,1,1,0,0], [1,1,0,1,0,1,1,1,1,1], [0,1,0,1,0,1,1,1,1,1], [1,1,0,0,1,1,1,0,0,1], [1,1,1,1,0,1,0,0,1,0], [0,0,0,1,1,1,0,1,1,0], [1,1,1,0,0,0,1,1,0,1], [0,1,0,0,0,1,0,0,1,0], [1,1,1,1,0,1,0,1,1,1], [0,0,1,1,1,1,0,0,1,1], [1,1,1,1,0,1,1,0,0,1], [1,1,1,1,1,0,1,1,0,1], [1,1,0,0,1,1,0,1,1,1], [0,0,1,1,1,1,1,0,0,0], [1,1,0,0,0,1,1,1,1,1], [0,1,1,0,1,1,1,1,1,1], [1,1,0,0,0,0,0,1,0,0], [1,0,1,0,1,0,0,1,0,1], [1,0,1,0,0,0,0,1,1,0], [0,1,0,1,0,1,1,1,0,0], [1,1,0,0,1,1,0,0,0,1], [0,1,0,1,1,0,1,1,0,0], [1,0,1,1,1,0,1,1,1,0], [0,1,0,1,1,1,0,1,1,0], [1,1,0,1,1,1,0,0,1,1], [0,1,0,0,1,1,0,1,1,0], [1,0,1,1,0,1,0,1,1,0], [1,1,0,1,0,0,0,1,1,0], [1,1,1,1,0,0,1,1,0,1], [1,1,0,1,0,1,0,1,0,1], [1,0,1,1,0,1,0,1,0,1], [1,1,0,1,1,1,1,1,0,1], [0,1,1,0,0,1,1,1,1,1], [0,0,1,1,0,0,1,1,0,1], [1,0,1,1,0,1,1,1,1,1], [1,0,1,1,1,1,1,1,0,0], [1,1,1,0,0,1,1,1,1,0], [1,0,1,0,0,0,0,1,1,1], [1,0,0,0,0,1,1,0,0,0], [1,0,0,1,0,1,1,0,1,0], [0,1,1,1,1,1,1,1,0,0], [1,1,1,1,0,1,0,0,1,1]];
permutations = [4,7,6,2,5,3,8,9,1,10];